NAME : XML100_3162_17
DIMENSION : 101
NB_CLUSTERS : 15
CLUSTERING_ALG : DBSCAN
CLUSTERING_PARAMS : eps(98), minSamples(3)
CLUSTERS
1 0
2 1 4 11 53 84 98
3 3 14 17 18 37 58 71 73 80 86 91 92 99
4 6 62 87 94
5 7 19 21 25 29 30 39 40 41 43 44 49 69 70 74 93 100
6 8 27 32 45 60 75 82 85 95
7 10 48 54 56 57 67 97
8 12 47 90
9 15 34 38 65 77 83 88 89 96
10 16 24 52 61 72
11 5 22 36 50 51 66 76 81
12 13 23 31 35 59 63 64 68 78 79
13 26 28 42 46 55
14 2 33
15 9 20
EOF